Pd 
 1.0000000000000000
     7.8540000000000001    3.9270000000000000    3.9270000000000000
     3.9270000000000000    7.8540000000000001    3.9270000000000000
     3.9270000000000000    3.9270000000000000    7.8540000000000001
  16
Cartesian
  0.0081649658092775  0.0040824829046387  0.0040824829046387
  7.8540000000000010  5.8905000000000003  5.8904999999999994
  7.8540000000000010  7.8540000000000001  7.8539999999999992
  7.8539999999999992  9.8174999999999990  9.8174999999999972
  5.8905000000000021  7.8540000000000010  5.8905000000000003
  1.9635000000000007  1.9635000000000007  3.9270000000000000
  9.8174999999999990  7.8539999999999992  9.8174999999999990
  5.8905000000000021  5.8905000000000012  3.9270000000000009
  5.8905000000000021  5.8905000000000012  7.8540000000000001
  1.9635000000000009  3.9270000000000005  1.9635000000000005
  9.8175000000000008  9.8174999999999990  7.8539999999999992
  5.8905000000000012  3.9270000000000000  5.8904999999999994
  3.9270000000000009  1.9635000000000005  1.9635000000000005
  3.9270000000000005  3.9270000000000000  3.9269999999999996
  3.9270000000000005  5.8905000000000003  5.8904999999999985
 11.7810000000000024 11.7810000000000024 11.7809999999999988
