Pd
   1.0
     0.0000000000000000    5.8905000000000003    5.8905000000000003
     5.8905000000000003    0.0000000000000000    5.8905000000000003
     5.8905000000000003    5.8905000000000003    0.0000000000000000
  27
Direct
  0.0012004189477745  0.0000000000000000  0.0000000000000000
  0.3333333333333333  0.0000000000000000  0.0000000000000000
  0.6666666666666666  0.0000000000000000  0.0000000000000000
  0.0000000000000000  0.3333333333333333  0.0000000000000000
  0.3333333333333333  0.3333333333333333  0.0000000000000000
  0.6666666666666666  0.3333333333333334 -0.0000000000000000
  0.0000000000000000  0.6666666666666666  0.0000000000000000
  0.3333333333333334  0.6666666666666666  1.0000000000000000
  0.6666666666666666  0.6666666666666666  0.0000000000000000
  0.0000000000000000  0.0000000000000000  0.3333333333333333
  0.3333333333333333  0.0000000000000000  0.3333333333333333
  0.6666666666666667  1.0000000000000000  0.3333333333333334
  0.0000000000000000  0.3333333333333333  0.3333333333333333
  0.3333333333333333  0.3333333333333333  0.3333333333333333
  0.6666666666666667  0.3333333333333333  0.3333333333333333
  1.0000000000000000  0.6666666666666667  0.3333333333333334
  0.3333333333333333  0.6666666666666667  0.3333333333333333
  0.6666666666666666  0.6666666666666666  0.3333333333333334
  0.0000000000000000  0.0000000000000000  0.6666666666666666
  0.3333333333333334 -0.0000000000000000  0.6666666666666667
  0.6666666666666666  0.0000000000000000  0.6666666666666666
 -0.0000000000000000  0.3333333333333334  0.6666666666666666
  0.3333333333333333  0.3333333333333333  0.6666666666666667
  0.6666666666666666  0.3333333333333334  0.6666666666666666
  0.0000000000000000  0.6666666666666666  0.6666666666666666
  0.3333333333333334  0.6666666666666666  0.6666666666666666
  0.6666666666666666  0.6666666666666666  0.6666666666666666
