Pd 
 1.0000000000000000
     0.0000000000000000    1.9635000000000000    1.9635000000000000
     1.9635000000000000    0.0000000000000000    1.9635000000000000
     1.9635000000000000    1.9635000000000000    0.0000000000000000
   1
Cartesian
  0.0000000000000000  0.0000000000000000  0.0000000000000000
