Pd 
 1.0000000000000000
     3.9270000000000000    0.0000000000000000    0.0000000000000000
     0.0000000000000000    3.9270000000000000    0.0000000000000000
     0.0000000000000000    0.0000000000000000    3.9270000000000000
   4
Cartesian
  0.0099999999999999  0.0000000000000000  0.0000000000000000
  0.0000000000000000  1.9635000000000000  1.9635000000000000
  1.9635000000000000  0.0000000000000000  1.9635000000000000
  1.9635000000000000  1.9635000000000000  0.0000000000000000
