Pd 
 1.0000000000000000
     3.9270000000000000    1.9635000000000000    1.9635000000000000
     1.9635000000000000    3.9270000000000000    1.9635000000000000
     1.9635000000000000    1.9635000000000000    3.9270000000000000
   2
Cartesian
  0.0081649658092771  0.0040824829046385  0.0040824829046385
  3.9270000000000005  3.9270000000000000  3.9269999999999996
