Pd
   1.0
     3.9270000000000000    0.0000000000000000    0.0000000000000000
     0.0000000000000000    3.9270000000000000    0.0000000000000000
     0.0000000000000000    0.0000000000000000    3.9270000000000000
   4
Direct
  0.0025464731347084  0.0000000000000000  0.0000000000000000
  0.0000000000000000  0.5000000000000000  0.5000000000000000
  0.5000000000000000  0.0000000000000000  0.5000000000000000
  0.5000000000000000  0.5000000000000000  0.0000000000000000
