ISYM=0
PREC=a
LWAVE=False
SIGMA=0.1
IALGO=38
ADDGRID=True
ENCUT=500
IBRION=-1
LREAL=False
EDIFF=1.0e-08
ISMEAR=0
