Pd
   1.0
     7.8540000000000001    3.9270000000000000    3.9270000000000000
     3.9270000000000000    7.8540000000000001    3.9270000000000000
     3.9270000000000000    3.9270000000000000    7.8540000000000001
  16
Direct
  0.0010395933039569 -0.0000000000000000 -0.0000000000000000
  0.7500000000000002  0.2500000000000000  0.2499999999999998
  0.5000000000000002  0.5000000000000000  0.4999999999999998
  0.2500000000000001  0.7499999999999999  0.7499999999999998
  0.2500000000000003  0.7500000000000001  0.2499999999999998
  0.0000000000000001  0.0000000000000001  0.4999999999999999
  0.7500000000000000  0.2499999999999999  0.7499999999999998
  0.5000000000000002  0.5000000000000000  0.0000000000000000
  0.2500000000000003  0.2500000000000001  0.7499999999999998
  0.0000000000000001  0.5000000000000000 -0.0000000000000000
  0.7500000000000000  0.7499999999999999  0.2500000000000000
  0.5000000000000002  0.0000000000000000  0.4999999999999998
  0.5000000000000001 -0.0000000000000000 -0.0000000000000000
  0.2500000000000001  0.2500000000000000  0.2499999999999999
  0.0000000000000001  0.5000000000000001  0.4999999999999998
  0.7500000000000006  0.7500000000000000  0.7499999999999997
