Pd
   1.0
     3.9270000000000000    1.9635000000000000    1.9635000000000000
     1.9635000000000000    3.9270000000000000    1.9635000000000000
     1.9635000000000000    1.9635000000000000    3.9270000000000000
   2
Direct
  0.0000000000000000  0.0000000000000000  0.0000000000000000
  0.5000000000000000  0.5000000000000000  0.5000000000000000
