Server version 2017.05.18. K-point grid has 48 total points and 24 distinct points. Actual minimum periodic distance is 31.415999999999993 Angstroms. Grid does not include gamma point. 
24
Fractional
0.25000000000000 0.12500000000000 0.91666666666667 2.0 ! 1
0.50000000000000 0.12500000000000 0.75000000000000 2.0 ! 2
0.75000000000000 0.12500000000000 0.58333333333333 2.0 ! 3
0.00000000000000 0.12500000000000 0.41666666666667 2.0 ! 4
0.25000000000000 0.12500000000000 0.25000000000000 2.0 ! 5
0.50000000000000 0.12500000000000 0.08333333333333 2.0 ! 6
0.75000000000000 0.12500000000000 0.91666666666667 2.0 ! 7
0.00000000000000 0.12500000000000 0.75000000000000 2.0 ! 8
0.25000000000000 0.12500000000000 0.58333333333333 2.0 ! 9
0.50000000000000 0.12500000000000 0.41666666666667 2.0 ! 10
0.75000000000000 0.12500000000000 0.25000000000000 2.0 ! 11
0.00000000000000 0.12500000000000 0.08333333333333 2.0 ! 12
0.25000000000000 0.37500000000000 0.75000000000000 2.0 ! 13
0.50000000000000 0.37500000000000 0.58333333333333 2.0 ! 14
0.75000000000000 0.37500000000000 0.41666666666667 2.0 ! 15
0.00000000000000 0.37500000000000 0.25000000000000 2.0 ! 16
0.25000000000000 0.37500000000000 0.08333333333333 2.0 ! 17
0.50000000000000 0.37500000000000 0.91666666666667 2.0 ! 18
0.75000000000000 0.37500000000000 0.75000000000000 2.0 ! 19
0.00000000000000 0.37500000000000 0.58333333333333 2.0 ! 20
0.25000000000000 0.37500000000000 0.41666666666667 2.0 ! 21
0.50000000000000 0.37500000000000 0.25000000000000 2.0 ! 22
0.75000000000000 0.37500000000000 0.08333333333333 2.0 ! 23
0.00000000000000 0.37500000000000 0.91666666666667 2.0 ! 24
Tetrahedra
144    0.003472222222222222
2    1   12   17   24   
2    1   13   17   18   
2    1   13   17   24   
2    1   2   13   18   
2    1   2   6   11   
2    1   2   6   18   
2    1   2   6   6   
2    1   2   9   11   
2    1   2   9   13   
2    1   5   12   17   
2    1   5   6   17   
2    1   5   6   7   
2    1   5   7   12   
2    1   6   17   18   
2    1   6   6   7   
2    1   6   7   11   
2    1   7   11   12   
2    1   7   12   12   
2    1   8   11   12   
2    1   8   12   12   
2    1   8   12   24   
2    1   8   13   24   
2    1   8   9   11   
2    1   8   9   13   
2    11   12   16   23   
2    11   15   16   23   
2    11   15   22   23   
2    12   16   17   24   
2    12   16   23   24   
2    13   14   15   21   
2    13   14   15   22   
2    13   14   18   22   
2    13   15   16   20   
2    13   15   16   23   
2    13   15   20   21   
2    13   15   22   23   
2    13   16   20   24   
2    13   16   23   24   
2    13   17   18   23   
2    13   17   23   24   
2    13   18   22   23   
2    14   14   15   21   
2    14   14   15   22   
2    14   14   21   22   
2    14   15   19   21   
2    14   18   19   22   
2    14   19   21   22   
2    15   16   20   20   
2    15   19   20   21   
2    15   20   20   21   
2    16   17   19   21   
2    16   17   19   24   
2    16   17   24   24   
2    16   19   20   21   
2    16   19   20   24   
2    16   20   20   21   
2    16   23   24   24   
2    17   18   18   22   
2    17   18   18   23   
2    17   18   19   22   
2    17   18   19   23   
2    17   19   21   22   
2    17   19   23   24   
2    17   23   24   24   
2    18   18   22   23   
2    2   13   14   18   
2    2   14   18   19   
2    2   3   14   19   
2    2   3   5   7   
2    2   3   5   10   
2    2   3   7   19   
2    2   3   10   14   
2    2   3   10   10   
2    2   5   6   7   
2    2   5   6   10   
2    2   6   6   7   
2    2   6   7   18   
2    2   6   10   11   
2    2   7   18   19   
2    2   9   13   14   
2    2   9   10   11   
2    2   9   10   14   
2    2   9   10   10   
2    3   14   15   19   
2    3   15   19   20   
2    3   4   11   15   
2    3   4   15   20   
2    3   4   4   8   
2    3   4   4   9   
2    3   4   5   8   
2    3   4   5   9   
2    3   4   8   20   
2    3   4   9   11   
2    3   5   7   8   
2    3   5   9   10   
2    3   7   8   19   
2    3   8   19   20   
2    3   9   10   11   
2    3   9   10   10   
2    3   10   11   15   
2    3   10   14   15   
2    4   11   12   16   
2    4   11   15   16   
2    4   15   16   20   
2    4   16   20   21   
2    4   4   8   9   
2    4   5   12   16   
2    4   5   16   21   
2    4   5   8   12   
2    4   5   9   21   
2    4   8   11   12   
2    4   8   9   11   
2    4   8   9   20   
2    4   9   20   21   
2    5   12   16   17   
2    5   16   17   21   
2    5   17   21   22   
2    5   6   17   22   
2    5   6   10   22   
2    5   7   8   12   
2    5   9   10   21   
2    5   10   21   22   
2    6   11   22   23   
2    6   17   18   22   
2    6   18   22   23   
2    6   7   11   23   
2    6   7   18   23   
2    6   10   11   22   
2    7   11   12   23   
2    7   12   23   24   
2    7   18   19   23   
2    7   19   23   24   
2    7   8   12   12   
2    7   8   12   24   
2    7   8   19   24   
2    8   13   20   24   
2    8   19   20   24   
2    8   9   13   20   
2    9   13   14   21   
2    9   13   20   21   
2    9   10   14   21   
2    10   11   15   22   
2    10   14   15   22   
2    10   14   21   22   
