Pd 
 1.0000000000000000
     7.8540000000000001    0.0000000000000000    0.0000000000000000
     0.0000000000000000    7.8540000000000001    0.0000000000000000
     0.0000000000000000    0.0000000000000000    7.8540000000000001
  32
Cartesian
  0.0099999999999999  0.0000000000000000  0.0000000000000000
  0.0000000000000000  1.9635000000000000  1.9635000000000000
  0.0000000000000000  3.9270000000000000  3.9270000000000000
  0.0000000000000000  5.8905000000000012  5.8905000000000012
  1.9635000000000000  0.0000000000000000  1.9635000000000000
  1.9635000000000000  1.9635000000000000  3.9270000000000000
  1.9635000000000000  3.9270000000000000  5.8905000000000012
  1.9635000000000000  5.8905000000000012  0.0000000000000000
  3.9270000000000000  0.0000000000000000  3.9270000000000000
  3.9270000000000000  1.9635000000000000  5.8905000000000012
  3.9270000000000000  3.9270000000000000  0.0000000000000000
  3.9270000000000000  5.8905000000000012  1.9635000000000000
  5.8905000000000012  0.0000000000000000  5.8905000000000012
  5.8905000000000012  1.9635000000000000  0.0000000000000000
  5.8905000000000012  3.9270000000000000  1.9635000000000000
  5.8905000000000012  5.8905000000000012  3.9270000000000000
  1.9635000000000000  1.9635000000000000  0.0000000000000000
  1.9635000000000000  3.9270000000000000  1.9635000000000000
  1.9635000000000000  5.8905000000000012  3.9270000000000000
  1.9635000000000000  0.0000000000000000  5.8905000000000012
  3.9270000000000000  1.9635000000000000  1.9635000000000000
  3.9270000000000000  3.9270000000000000  3.9270000000000000
  3.9270000000000000  5.8905000000000012  5.8905000000000012
  3.9270000000000000  0.0000000000000000  0.0000000000000000
  5.8905000000000012  1.9635000000000000  3.9270000000000000
  5.8905000000000012  3.9270000000000000  5.8905000000000012
  5.8905000000000012  5.8905000000000012  0.0000000000000000
  5.8905000000000012  0.0000000000000000  1.9635000000000000
  0.0000000000000000  1.9635000000000000  5.8905000000000012
  0.0000000000000000  3.9270000000000000  0.0000000000000000
  0.0000000000000000  5.8905000000000012  1.9635000000000000
  0.0000000000000000  0.0000000000000000  3.9270000000000000
