Server version 2017.05.18. K-point grid has 52 total points and 26 distinct points. Actual minimum periodic distance is 30.035774444818287 Angstroms. Grid does not include gamma point. 
26
Fractional
0.19230769230769 0.26923076923077 0.27884615384615 2.0 ! 1
0.26923076923077 0.57692307692308 0.24038461538462 2.0 ! 2
0.34615384615385 0.88461538461539 0.20192307692308 2.0 ! 3
0.42307692307692 0.19230769230769 0.16346153846154 2.0 ! 4
0.50000000000000 0.50000000000000 0.12500000000000 2.0 ! 5
0.57692307692308 0.80769230769231 0.08653846153846 2.0 ! 6
0.65384615384615 0.11538461538462 0.04807692307692 2.0 ! 7
0.73076923076923 0.42307692307693 0.00961538461539 2.0 ! 8
0.80769230769231 0.73076923076923 0.97115384615385 2.0 ! 9
0.88461538461539 0.03846153846154 0.93269230769231 2.0 ! 10
0.96153846153846 0.34615384615385 0.89423076923077 2.0 ! 11
0.03846153846154 0.65384615384616 0.85576923076923 2.0 ! 12
0.11538461538462 0.96153846153847 0.81730769230769 2.0 ! 13
0.19230769230769 0.26923076923077 0.77884615384616 2.0 ! 14
0.26923076923077 0.57692307692308 0.74038461538461 2.0 ! 15
0.34615384615385 0.88461538461539 0.70192307692308 2.0 ! 16
0.42307692307692 0.19230769230770 0.66346153846154 2.0 ! 17
0.50000000000000 0.50000000000001 0.62500000000000 2.0 ! 18
0.57692307692308 0.80769230769231 0.58653846153846 2.0 ! 19
0.65384615384616 0.11538461538462 0.54807692307692 2.0 ! 20
0.73076923076923 0.42307692307693 0.50961538461539 2.0 ! 21
0.80769230769231 0.73076923076924 0.47115384615385 2.0 ! 22
0.88461538461539 0.03846153846155 0.43269230769231 2.0 ! 23
0.96153846153846 0.34615384615386 0.39423076923077 2.0 ! 24
0.03846153846154 0.65384615384616 0.35576923076923 2.0 ! 25
0.11538461538462 0.96153846153847 0.31730769230769 2.0 ! 26
Tetrahedra
156    0.003205128205128205
2    1   12   13   24   
2    1   12   21   24   
2    1   13   22   24   
2    1   13   22   26   
2    1   18   18   19   
2    1   18   18   21   
2    1   18   19   22   
2    1   18   21   22   
2    1   19   22   26   
2    1   2   12   21   
2    1   2   18   21   
2    1   2   9   12   
2    1   2   9   18   
2    1   21   22   24   
2    1   4   18   19   
2    1   4   9   18   
2    1   4   9   10   
2    1   4   10   19   
2    1   9   10   12   
2    1   9   10   10   
2    1   10   12   13   
2    1   10   13   26   
2    1   10   19   26   
2    1   10   10   13   
2    11   14   25   26   
2    11   20   25   26   
2    12   15   24   25   
2    12   21   24   25   
2    13   14   23   26   
2    13   16   23   24   
2    13   22   23   24   
2    13   22   23   26   
2    14   15   22   25   
2    14   17   22   23   
2    14   22   23   23   
2    14   22   23   25   
2    14   23   23   26   
2    14   23   25   26   
2    15   16   21   24   
2    15   18   21   22   
2    15   21   22   24   
2    15   21   24   24   
2    15   22   24   25   
2    15   24   24   25   
2    16   17   20   23   
2    16   19   20   21   
2    16   20   21   25   
2    16   20   23   25   
2    16   21   24   25   
2    16   23   24   25   
2    17   18   19   22   
2    17   19   20   20   
2    17   19   20   26   
2    17   19   22   26   
2    17   20   23   26   
2    17   22   23   26   
2    18   18   19   21   
2    20   23   25   26   
2    2   11   11   12   
2    2   11   12   25   
2    2   11   20   25   
2    2   12   21   25   
2    2   17   18   19   
2    2   17   19   20   
2    2   18   19   21   
2    2   19   20   21   
2    2   20   21   25   
2    2   3   11   20   
2    2   3   17   20   
2    2   3   8   11   
2    2   3   8   17   
2    2   5   17   18   
2    2   5   8   17   
2    2   5   8   9   
2    2   5   9   18   
2    2   8   11   11   
2    2   8   9   11   
2    2   9   11   12   
2    21   24   24   25   
2    22   23   23   26   
2    22   23   24   25   
2    3   11   20   26   
2    3   16   17   20   
2    3   16   19   20   
2    3   17   20   20   
2    3   19   20   20   
2    3   19   20   26   
2    3   4   16   19   
2    3   4   7   16   
2    3   4   7   10   
2    3   4   10   19   
2    3   6   16   17   
2    3   6   7   16   
2    3   6   7   8   
2    3   6   8   17   
2    3   7   8   12   
2    3   7   10   12   
2    3   8   11   12   
2    3   10   11   12   
2    3   10   11   26   
2    3   10   19   26   
2    4   15   16   21   
2    4   15   18   21   
2    4   16   19   21   
2    4   18   19   21   
2    4   5   15   18   
2    4   5   6   15   
2    4   5   6   9   
2    4   5   9   18   
2    4   6   7   13   
2    4   6   7   15   
2    4   6   7   7   
2    4   6   9   13   
2    4   7   15   16   
2    4   7   7   16   
2    4   7   10   13   
2    4   9   10   13   
2    5   14   15   22   
2    5   14   17   22   
2    5   15   18   22   
2    5   17   18   22   
2    5   5   6   14   
2    5   5   6   8   
2    5   5   8   14   
2    5   6   14   17   
2    5   6   8   15   
2    5   6   8   17   
2    5   6   9   14   
2    5   8   14   15   
2    5   8   9   14   
2    6   13   14   23   
2    6   13   16   23   
2    6   14   17   23   
2    6   16   17   23   
2    6   7   13   16   
2    6   7   7   16   
2    6   7   8   15   
2    6   9   13   14   
2    7   12   13   24   
2    7   12   15   24   
2    7   13   16   24   
2    7   15   16   24   
2    7   8   12   15   
2    7   10   12   13   
2    8   11   11   12   
2    8   11   12   25   
2    8   11   14   25   
2    8   12   15   25   
2    8   14   15   25   
2    8   9   11   14   
2    9   11   14   26   
2    9   13   14   26   
2    9   10   11   12   
2    9   10   11   26   
2    9   10   13   26   
2    9   10   10   13   
