Pd 
 1.0000000000000000
     0.0000000000000000    5.8905000000000003    5.8905000000000003
     5.8905000000000003    0.0000000000000000    5.8905000000000003
     5.8905000000000003    5.8905000000000003    0.0000000000000000
  27
Cartesian
  0.0000000000000000  0.0070710678118657  0.0070710678118657
  0.0000000000000000  1.9635000000000000  1.9635000000000000
  0.0000000000000000  3.9270000000000000  3.9270000000000000
  1.9635000000000000  0.0000000000000000  1.9635000000000000
  1.9635000000000000  1.9635000000000000  3.9270000000000000
  1.9635000000000007  3.9270000000000000  5.8905000000000012
  3.9270000000000000  0.0000000000000000  3.9270000000000000
  9.8175000000000008  7.8540000000000010  5.8905000000000012
  3.9270000000000000  3.9270000000000000  7.8540000000000001
  1.9635000000000000  1.9635000000000000  0.0000000000000000
  1.9635000000000000  3.9270000000000000  1.9635000000000000
  7.8540000000000010  5.8905000000000012  9.8175000000000008
  3.9270000000000000  1.9635000000000000  1.9635000000000000
  3.9270000000000000  3.9270000000000000  3.9270000000000000
  3.9270000000000000  5.8905000000000003  5.8905000000000003
  5.8905000000000012  7.8540000000000010  9.8175000000000008
  5.8905000000000003  3.9270000000000000  5.8905000000000003
  5.8905000000000012  5.8905000000000012  7.8540000000000001
  3.9270000000000000  3.9270000000000000  0.0000000000000000
  3.9270000000000005  5.8905000000000012  1.9635000000000007
  3.9270000000000000  7.8540000000000001  3.9270000000000000
  5.8905000000000012  3.9270000000000000  1.9635000000000007
  5.8905000000000003  5.8905000000000003  3.9270000000000000
  5.8905000000000012  7.8540000000000001  5.8905000000000012
  7.8540000000000001  3.9270000000000000  3.9270000000000000
  7.8540000000000001  5.8905000000000012  5.8905000000000012
  7.8540000000000001  7.8540000000000001  7.8540000000000001
