Pd Ag
   4.04950000000000     
     0.0000000000000000    0.0000000000000000   -0.9987024431394278
     0.0000000000000000    0.9987024431394278    0.0000000000000000
     0.9978578682677164   -0.4993512215697139    0.4993512215697139
   2   2
Direct
  0.0000000000000000  0.0000000000000000  0.0000000000000000
  0.7500000000000000  0.2500000000000000  0.5000000000000000
  0.5000000000000000  0.5000000000000000  0.0000000000000000
  0.2500000000000000  0.7500000000000000  0.5000000000000000