Pd 
 1.0000000000000000
     3.8906999999999998    0.0000000000000000    0.0000000000000000
     0.0000000000000000    3.8906999999999998    0.0000000000000000
     0.0000000000000000    0.0000000000000000    3.8906999999999998
   4
Cartesian
  0.0000000000000000  0.0000000000000000  0.0000000000000000
  1.9453499999999999  1.9453499999999999  0.0000000000000000
  1.9453499999999999  0.0000000000000000  1.9453499999999999
  0.0000000000000000  1.9453499999999999  1.9453499999999999
