Pd                                
3.927
0 .5 .5
.5 0 .5
.5 .5 0
1
Direct
  0.0000000000000000  0.0000000000000000  0.0000000000000000
